CMD:
./solvers/bin/cadical --plain --no-reduce -t 1600 ./data/cnfs//oski15a14b17s/oski15a14b17s.6.cnf

c --- [ banner ] -------------------------------------------------------------
c 
c CaDiCaL SAT Solver
c Copyright (c) 2016-2024
c A. Biere, M. Fleury, N. Froleyks, K. Fazekas, F. Pollitt, T. Faller
c JKU Linz, University of Freiburg, TU Wien
c 
c Version 2.1.3 5296d3d2a9bf48c154ab2acb5e44625776d821bf
c g++ (Gentoo 12.3.1_p20230526 p2) 12.3.1 20230526 -Wall -Wextra -O3 -DNDEBUG
c Sat Aug 9 07:26:21 PDT 2025 Linux cedar2.int.cedar.computecanada.ca 5.14.0-362.24.2.el9_3.x86_64 x86_64
c 
c --- [ limit ] --------------------------------------------------------------
c 
c setting time limit to 1600 seconds real time (due to '-t 1600')
c 
c --- [ parsing input ] ------------------------------------------------------
c 
c reading DIMACS file from './data/cnfs//oski15a14b17s/oski15a14b17s.6.cnf'
c opening file to read './data/cnfs//oski15a14b17s/oski15a14b17s.6.cnf'
c found 'p cnf 310541 902193' header
c parsed 902193 clauses in 0.14 seconds process time
c 
c --- [ options ] ------------------------------------------------------------
c 
c   --compact=false                (different from default 'true')
c   --decompose=false              (different from default 'true')
c   --deduplicate=false            (different from default 'true')
c   --elim=false                   (different from default 'true')
c   --probe=false                  (different from default 'true')
c   --reduce=false                 (different from default 'true')
c   --subsume=false                (different from default 'true')
c   --ternary=false                (different from default 'true')
c   --transred=false               (different from default 'true')
c   --vivify=false                 (different from default 'true')
c 
c --- [ solving ] ------------------------------------------------------------
c 
c time measured in process time since initialization
c 
c  seconds   reductions  redundant  irredundant
c          MB    restarts       trail       variables
c           level   conflicts       glue          remaining
c 
c *  0.14 131  0 0   0    0    0  0% 0 758290 225453 73%
c {  0.17 132  0 0   0    0    0  0% 0 758290 225453 73%
c i  0.17 132 42 0   0    6    5 28% 1 758290 225452 73%
c i  0.20 133 1597 0   4  132  126 41% 2 758290 225451 73%
c i  0.20 133 1585 0   5  133  126 40% 2 758290 225450 73%
c i  0.20 133 1573 0   5  134  126 40% 2 758290 225449 73%
c i  0.26 133 2349 0   6  362  353 50% 2 758290 225448 73%
c i  0.26 133 2343 0   6  363  353 50% 2 758290 225447 73%
c i  0.26 133 2336 0   6  364  353 50% 2 758290 225446 73%
c i  0.26 133 2330 0   6  365  353 50% 2 758290 225445 73%
c i  0.26 133 2324 0   6  366  353 50% 2 758290 225444 73%
c i  0.26 133 2317 0   6  367  353 50% 2 758290 225443 73%
c i  0.26 133 2311 0   6  368  353 50% 2 758290 225442 73%
c i  0.26 133 2305 0   6  369  353 50% 2 758290 225441 73%
c i  0.26 133 2299 0   6  370  353 50% 2 758290 225440 73%
c i  0.26 133 2292 0   6  371  353 50% 2 758290 225439 73%
c i  0.26 133 2286 0   6  372  353 50% 2 758290 225438 73%
c i  0.26 133 2280 0   6  373  353 49% 2 758290 225437 73%
c i  0.26 133 2274 0   6  374  353 49% 2 758290 225436 73%
c i  0.26 133 2268 0   6  375  353 49% 2 758290 225435 73%
c 
c  seconds     reductions  redundant  irredundant
c          MB      restarts       trail       variables
c            level    conflicts       glue          remaining
c 
c i  0.26 133 2262 0   6  376  353 49% 2 758290 225434 73%
c i  0.26 133 2256 0   6  377  353 49% 2 758290 225433 73%
c i  0.26 133 2250 0   6  378  353 49% 2 758290 225432 73%
c i  0.26 133 2244 0   6  379  353 49% 2 758290 225431 73%
c i  0.26 133 2238 0   6  380  353 49% 2 758290 225430 73%
c i  0.26 133 2232 0   6  381  353 49% 2 758290 225429 73%
c i  0.26 133 2227 0   6  382  353 49% 2 758290 225428 73%
c i  0.26 133 2221 0   6  383  353 49% 2 758290 225427 73%
c i  0.26 133 2215 0   6  384  353 49% 2 758290 225426 73%
c i  0.26 133 2209 0   6  385  353 49% 2 758290 225425 73%
c i  0.26 133 2204 0   6  386  353 49% 2 758290 225424 73%
c i  0.26 133 2198 0   6  387  353 49% 2 758290 225423 73%
c i  0.26 133 2192 0   6  388  353 49% 2 758290 225422 73%
c i  0.26 133 2187 0   6  389  353 49% 2 758290 225421 73%
c i  0.26 133 2181 0   6  390  353 49% 2 758290 225420 73%
c i  0.26 133 2176 0   6  391  353 49% 2 758290 225419 73%
c i  0.26 133 2170 0   6  392  353 49% 2 758290 225418 73%
c i  0.26 133 2165 0   6  393  353 49% 2 758290 225417 73%
c i  0.26 133 2159 0   6  394  353 49% 2 758290 225416 73%
c i  0.26 133 2154 0   6  395  353 48% 2 758290 225415 73%
c 
c  seconds     reductions  redundant  irredundant
c          MB      restarts       trail       variables
c            level    conflicts       glue          remaining
c 
c i  0.26 133 2148 0   6  396  353 48% 2 758290 225414 73%
c i  0.26 133 2143 0   6  397  353 48% 2 758290 225413 73%
c i  0.26 133 2137 0   6  398  353 48% 2 758290 225412 73%
c i  0.26 133 2132 0   6  399  353 48% 2 758290 225411 73%
... skipped 214 lines ...
c i  0.32 133 1477 0  19  931  649 44% 3 758290 216671 70%
c i  0.32 133 1475 0  19  932  649 44% 3 758290 216670 70%
c 
c  seconds     reductions  redundant  irredundant
c          MB      restarts       trail       variables
c            level    conflicts       glue          remaining
c 
c }  0.35 133 1443 0  32 1000  713 44% 3 758290 216656 70%
c [  0.35 133  0 0  32 1000  713  0% 0 758290 216656 70%
c O  0.36 133 150 0  32 1003  716 37% 1 758290 216656 70%
c i  0.37 133 385 0  32 1009  718 42% 1 758290 216582 70%
c i  0.37 133 457 0  32 1014  719 43% 1 758290 216510 70%
c i  0.37 133 495 0  32 1019  720 43% 1 758290 216439 70%
c i  0.38 133 519 0  32 1024  721 44% 1 758290 216367 70%
c i  0.38 133 536 0  32 1029  722 44% 1 758290 216296 70%
c i  0.38 133 547 0  32 1034  723 44% 1 758290 216225 70%
c i  0.38 133 556 0  32 1039  724 44% 1 758290 216154 70%
c i  0.38 133 563 0  32 1044  725 44% 1 758290 216082 70%
c i  0.40 133 355 0  32 1290  968 40% 2 758290 215978 70%
c i  0.40 133 357 0  32 1292  968 41% 2 758290 215906 70%
c i  0.41 133 358 0  32 1294  968 41% 2 758290 215834 70%
c i  0.41 133 360 0  32 1296  968 41% 2 758290 215762 69%
c i  0.42 133 361 0  32 1298  968 41% 2 758290 215690 69%
c i  0.42 133 363 0  32 1300  968 41% 2 758290 215618 69%
c i  0.43 133 364 0  32 1302  968 41% 2 758290 215546 69%
c i  0.43 133 366 0  32 1304  968 41% 2 758290 215123 69%
c i  0.44 133 360 0  32 1312  973 41% 2 758290 215064 69%
c 
c  seconds    reductions  redundant  irredundant
c          MB     restarts       trail       variables
c            level   conflicts       glue          remaining
c 
c i  0.46 133 236 0  32 1486 1078 39% 4 758290 213632 69%
c i  0.47 133 232 0  32 1500 1090 39% 4 758290 213620 69%
c i  0.47 133 227 0  32 1520 1108 39% 4 758290 213612 69%
c i  0.47 133 224 0  32 1531 1113 39% 4 758290 213603 69%
c i  0.47 133 223 0  32 1534 1114 39% 4 758290 213594 69%
c i  0.48 133 203 0  32 1594 1150 38% 4 758290 208931 67%
c i  0.48 133 201 0  32 1601 1156 38% 4 758290 208925 67%
c i  0.48 133 199 0  32 1607 1161 38% 4 758290 208921 67%
c i  0.48 134 191 0  32 1632 1180 38% 3 758290 208335 67%
c i  0.48 134 186 0  32 1648 1184 38% 3 758290 205757 66%
c i  0.49 134 196 0  32 1658 1193 38% 3 758290 205735 66%
c i  0.49 134 193 0  32 1668 1194 38% 3 758290 203014 65%
c i  0.49 134 191 0  32 1674 1196 38% 3 758290 202214 65%
c i  0.49 134 190 0  32 1677 1197 38% 3 758290 201699 65%
c ]  0.49 134 190 0  32 1680 1198 38% 3 758290 200387 65%
c 0  0.49 134 190 0  32 1680 1198 38% 3 758290 200387 65%
c 
c --- [ result ] -------------------------------------------------------------
c 
s UNSATISFIABLE
c 
c --- [ run-time profiling ] -------------------------------------------------
c 
c process time taken by individual solving procedures
c (percentage relative to process time for solving)
c 
c         0.35   99.97% search
c         0.19   52.72% unstable
c         0.14   40.42% parse
c         0.14   40.08% stable
c         0.03    7.17% lucky
c         0.00    0.00% simplify
c   =================================
c         0.35   71.13% solve
c 
c last line shows process time for solving
c (percentage relative to total process time)
c 
c --- [ statistics ] ---------------------------------------------------------
c 
c chronological:               863        51.37 %  of conflicts
c conflicts:                  1680      4785.00    per second
c decisions:                 67190    191371.62    per second
c fixed:                    110154        35.47 %  of all variables
c learned:                    1587        94.46 %  per conflict
c learned_lits:              21413       100.00 %  learned literals
c minimized:                     0         0.00 %  learned literals
c shrunken:                   9728        45.43 %  learned literals
c minishrunken:                944         4.41 %  learned literals
c otfs:                         15         0.89 %  of conflict
c propagations:            4175181        11.89 M  per second
c rephased:                      1      1680.00    interval
c restarts:                     32        52.50    interval
c stabilizing:                   1        40.48 %  of conflicts
c subsumed:                    112         0.01 %  of all clauses
c strengthened:                 15         0.00 %  of all clauses
c 
c seconds are measured in process time for solving
c 
c --- [ resources ] ----------------------------------------------------------
c 
c total process time since initialization:         0.49    seconds
c total real time since initialization:            0.50    seconds
c maximum resident set size of process:          133.00    MB
c 
c --- [ shutting down ] ------------------------------------------------------
c 
c exit 20
